Version identifier: 20.1.0.0 | 2020-11-10 | 9bedb6d68
Found incumbent of value 0.000000 after 0.00 sec. (0.00 ticks)
Tried aggregator 2 times.
MIP Presolve eliminated 89 rows and 10 columns.
MIP Presolve modified 7 coefficients.
Aggregator did 28 substitutions.
Reduced MIP has 70 rows, 75 columns, and 181 nonzeros.
Reduced MIP has 45 binaries, 0 generals, 0 SOSs, and 17 indicators.
Presolve time = 0.00 sec. (0.30 ticks)
Probing fixed 0 vars, tightened 15 bounds.
Probing changed sense of 15 constraints.
Probing time = 0.00 sec. (0.11 ticks)
Cover probing fixed 0 vars, tightened 6 bounds.
Tried aggregator 1 time.
MIP Presolve eliminated 64 rows and 66 columns.
MIP Presolve modified 53 coefficients.
Reduced MIP has 6 rows, 9 columns, and 19 nonzeros.
Reduced MIP has 9 binaries, 0 generals, 0 SOSs, and 0 indicators.
Presolve time = 0.00 sec. (0.11 ticks)
Probing time = 0.00 sec. (0.00 ticks)
Tried aggregator 1 time.
MIP Presolve eliminated 0 rows and 1 columns.
MIP Presolve modified 7 coefficients.
Reduced MIP has 6 rows, 8 columns, and 17 nonzeros.
Reduced MIP has 8 binaries, 0 generals, 0 SOSs, and 0 indicators.
Presolve time = 0.00 sec. (0.02 ticks)
Probing time = 0.00 sec. (0.00 ticks)
Clique table members: 5.
MIP emphasis: balance optimality and feasibility.
MIP search method: dynamic search.
Parallel mode: deterministic, using up to 10 threads.
Root relaxation solution time = 0.00 sec. (0.01 ticks)

        Nodes                                         Cuts/
   Node  Left     Objective  IInf  Best Integer    Best Bound    ItCnt     Gap

*     0+    0                            0.0000     3732.9769              --- 
*     0+    0                         3208.1529     3732.9769            16.36%
      0     0        cutoff           3208.1529     3208.1529        2    0.00%
      0     0        cutoff           3208.1529     3208.1529        2    0.00%
Elapsed time = 0.01 sec. (1.61 ticks, tree = 0.01 MB, solutions = 2)

Root node processing (before b&c):
  Real time             =    0.01 sec. (1.61 ticks)
Parallel b&c, 10 threads:
  Real time             =    0.00 sec. (0.00 ticks)
  Sync time (average)   =    0.00 sec.
  Wait time (average)   =    0.00 sec.
                          ------------
Total (root+branch&cut) =    0.01 sec. (1.61 ticks)
